50
11920

562 346
324 98
136 862
571 245
729 279
548 272
310 664
813 15
961 959
518 903
198 585
732 921
781 290
447 647
170 142
159 361
990 669
827 448
895 180
674 205
111 412
505 815
665 835
226 868
224 802
781 623
524 284
570 28
871 376
521 100
159 296
484 587
223 299
29 604
76 509
434 714
66 120
136 798
511 118
689 232
167 151
974 338
132 484
58 548
715 680
562 327
299 801
959 441
348 114
716 793
